lbl,CUST NO.,READY TIME,XCOORD.,YCOORD.,DEMAND,DUE DATE,SERVICE TIME
15,190,55,28,33,20,135,90
15,5,81,25,26,20,226,90
15,10,127,24,26,20,363,90
15,193,241,21,26,20,435,90
15,46,368,21,25,20,490,90
15,128,450,22,22,10,593,90
15,106,497,24,24,10,732,90
15,167,601,30,24,20,820,90
15,34,692,30,27,10,916,90
15,95,864,29,28,10,925,90
15,158,962,30,31,20,1014,90
